NAME : ClusterId_1048 
COMMENT : (Gillet and Johnson) 
TYPE : CVRP 
DIMENSION : 10 
EDGE_WEIGHT_TYPE : EUC_2D 
CAPACITY : 500 
NODE_COORD_SECTION 
1048 1258 8329 
160 1224 8500 
300 1312 8531 
545 1461 8500 
563 1340 8302 
686 1454 8220 
496 1737 8218 
339 1809 8260 
396 1899 7826 
708 1979 7661 
DEMAND_SECTION 
1048 537
160 25
300 25
545 37
563 31
686 48
496 55
339 36
396 55
708 35
DEPOT_SECTION 
1048
 -1
EOF